words_hard_train/210.qaiger
aag 106 23 0 1 83
2
4
8
10
18
34
40
54
58
64
70
90
94
100
116
122
136
150
156
170
180
184
190
212
6 2 5
12 8 11
14 12 3
16 7 15
20 16 18
22 17 19
24 21 23
26 25 8
28 13 2
30 29 15
32 26 31
36 18 35
38 37 23
42 38 40
44 39 41
46 43 45
48 33 46
50 32 47
52 49 51
56 52 54
60 24 59
62 61 33
66 65 9
68 66 3
72 69 70
74 25 58
76 73 75
78 67 31
80 76 79
82 62 81
84 46 55
86 82 85
88 57 87
92 89 90
96 40 95
98 97 45
102 98 100
104 99 101
106 103 105
108 51 106
110 50 107
112 109 111
114 93 113
118 100 117
120 119 105
124 120 122
126 121 123
128 125 127
130 111 128
132 110 129
134 131 133
138 135 137
140 115 139
142 88 91
144 140 143
146 134 136
148 145 147
152 122 151
154 153 127
158 154 156
160 155 157
162 159 161
164 133 162
166 132 163
168 165 167
172 168 170
174 148 173
176 169 171
178 175 177
182 178 181
186 156 185
188 187 161
192 189 191
194 188 190
196 193 195
198 196 166
200 182 198
202 183 199
204 179 180
206 197 167
208 205 207
210 202 209
212 201 211
i0 1 x2[1]
i1 2 y1[1]
i2 1 x2[0]
i3 2 y1[0]
i4 1 x2[2]
i5 2 y1[2]
i6 1 x2[3]
i7 1 x1[3]
i8 1 x1[2]
i9 1 x1[0]
i10 1 x1[1]
i11 1 x1[4]
i12 2 y1[3]
i13 1 x2[4]
i14 2 y1[4]
i15 1 x2[5]
i16 1 x1[5]
i17 2 y1[5]
i18 1 x2[6]
i19 1 x1[6]
i20 1 x1[7]
i21 2 y1[6]
i22 1 x2[7]
o0 bv[0]
c
simplified
  <=
    add
      xor
        2 y1
        1 x2
      invert
        2 y1
    1 x1
