words_hard_train/210.qaiger.qdimacs
p cnf 106 250
a 32 1 35 4 68 9 45 78 50 61 20 85 90 27 29 95 0
e 2 3 5 6 7 8 10 11 12 13 14 15 16 17 18 19 21 22 23 24 25 26 28 30 31 33 34 36 37 38 39 40 41 42 43 44 46 47 48 49 51 52 53 54 55 56 57 58 59 60 62 63 64 65 66 67 69 70 71 72 73 74 75 76 77 79 80 81 82 83 84 86 87 88 89 91 92 93 94 96 97 98 99 100 101 102 103 104 105 106 0
-1 2 3 0
1 -3 0
-2 -3 0
-4 5 6 0
4 -6 0
-5 -6 0
-6 1 7 0
6 -7 0
-1 -7 0
3 7 8 0
-3 -8 0
-7 -8 0
-8 -9 10 0
8 -10 0
9 -10 0
8 9 11 0
-8 -11 0
-9 -11 0
10 11 12 0
-10 -12 0
-11 -12 0
12 -4 13 0
-12 -13 0
4 -13 0
6 -1 14 0
-6 -14 0
1 -14 0
14 7 15 0
-14 -15 0
-7 -15 0
-13 15 16 0
13 -16 0
-15 -16 0
-9 17 18 0
9 -18 0
-17 -18 0
18 11 19 0
-18 -19 0
-11 -19 0
-19 -20 21 0
19 -21 0
20 -21 0
19 20 22 0
-19 -22 0
-20 -22 0
21 22 23 0
-21 -23 0
-22 -23 0
16 -23 24 0
-16 -24 0
23 -24 0
-16 23 25 0
16 -25 0
-23 -25 0
24 25 26 0
-24 -26 0
-25 -26 0
-26 -27 28 0
26 -28 0
27 -28 0
-12 29 30 0
12 -30 0
-29 -30 0
30 16 31 0
-30 -31 0
-16 -31 0
32 4 33 0
-32 -33 0
-4 -33 0
-33 1 34 0
33 -34 0
-1 -34 0
34 -35 36 0
-34 -36 0
35 -36 0
12 -29 37 0
-12 -37 0
29 -37 0
36 37 38 0
-36 -38 0
-37 -38 0
33 15 39 0
-33 -39 0
-15 -39 0
-38 39 40 0
38 -40 0
-39 -40 0
-31 40 41 0
31 -41 0
-40 -41 0
-23 27 42 0
23 -42 0
-27 -42 0
-41 42 43 0
41 -43 0
-42 -43 0
28 43 44 0
-28 -44 0
-43 -44 0
44 -45 46 0
-44 -46 0
45 -46 0
-20 47 48 0
20 -48 0
-47 -48 0
48 22 49 0
-48 -49 0
-22 -49 0
-49 -50 51 0
49 -51 0
50 -51 0
49 50 52 0
-49 -52 0
-50 -52 0
51 52 53 0
-51 -53 0
-52 -53 0
25 -53 54 0
-25 -54 0
53 -54 0
-25 53 55 0
25 -55 0
-53 -55 0
54 55 56 0
-54 -56 0
-55 -56 0
46 56 57 0
-46 -57 0
-56 -57 0
-50 58 59 0
50 -59 0
-58 -59 0
59 52 60 0
-59 -60 0
-52 -60 0
-60 -61 62 0
60 -62 0
61 -62 0
60 61 63 0
-60 -63 0
-61 -63 0
62 63 64 0
-62 -64 0
-63 -64 0
55 -64 65 0
-55 -65 0
64 -65 0
-55 64 66 0
55 -66 0
-64 -66 0
65 66 67 0
-65 -67 0
-66 -67 0
67 68 69 0
-67 -69 0
-68 -69 0
57 69 70 0
-57 -70 0
-69 -70 0
-44 45 71 0
44 -71 0
-45 -71 0
-70 71 72 0
70 -72 0
-71 -72 0
-67 -68 73 0
67 -73 0
68 -73 0
72 73 74 0
-72 -74 0
-73 -74 0
-61 75 76 0
61 -76 0
-75 -76 0
76 63 77 0
-76 -77 0
-63 -77 0
-77 -78 79 0
77 -79 0
78 -79 0
77 78 80 0
-77 -80 0
-78 -80 0
79 80 81 0
-79 -81 0
-80 -81 0
66 -81 82 0
-66 -82 0
81 -82 0
-66 81 83 0
66 -83 0
-81 -83 0
82 83 84 0
-82 -84 0
-83 -84 0
-84 -85 86 0
84 -86 0
85 -86 0
-74 86 87 0
74 -87 0
-86 -87 0
84 85 88 0
-84 -88 0
-85 -88 0
87 88 89 0
-87 -89 0
-88 -89 0
-89 90 91 0
89 -91 0
-90 -91 0
-78 92 93 0
78 -93 0
-92 -93 0
93 80 94 0
-93 -94 0
-80 -94 0
94 95 96 0
-94 -96 0
-95 -96 0
-94 -95 97 0
94 -97 0
95 -97 0
96 97 98 0
-96 -98 0
-97 -98 0
-98 -83 99 0
98 -99 0
83 -99 0
-91 -99 100 0
91 -100 0
99 -100 0
91 99 101 0
-91 -101 0
-99 -101 0
89 -90 102 0
-89 -102 0
90 -102 0
98 83 103 0
-98 -103 0
-83 -103 0
102 103 104 0
-102 -104 0
-103 -104 0
-101 104 105 0
101 -105 0
-104 -105 0
100 105 106 0
-100 -106 0
-105 -106 0
106 0
